
Value of objective function: 83.00000000

Actual values of the variables:
t1                              1
t2                              1
t3                              1
t4                              0
t5                              0
t6                              0
t7                              1
t8                              0
t9                              1
t10                             0
t11                             0
t12                             0
t13                             1
t14                             0
t15                             1
t16                             0
t17                             1
t18                             0
t19                             0
t20                             1
t21                             0
t22                             0
t23                             0
t24                             0
t25                             0
t26                             0
t27                             1
t28                             1
t29                             0
t30                             1
t31                             0
t32                             1
t33                             0
t34                             0
t35                             0
t36                             1
t37                             1
t38                             0
t39                             0
t40                             0
t41                             0
t42                             1
t43                             0
t44                             0
t45                             0
t46                             1
t47                             1
t48                             1
t49                             0
t50                             0
t51                             0
t52                             0
t53                             0
t54                             0
t55                             1
t56                             0
t57                             1
t58                             0
t59                             0
t60                             0
t61                             0
t62                             1
t63                             1
t64                             0
t65                             0
t66                             0
t67                             0
t68                             0
t69                             1
t70                             1
t71                             0
t72                             1
t73                             1
t74                             0
t75                             0
t76                             0
t77                             1
t78                             0
t79                             0
t80                             1
t81                             0
t82                             0
t83                             1
t84                             1
t85                             0
t86                             0
t87                             1
t88                             0
t89                             1
t90                             0
t91                             1
t92                             1
t93                             1
t94                             1
t95                             0
t96                             1
t97                             1
t98                             0
t99                             0
t100                            0
t101                            1
t102                            0
t103                            1
t104                            0
t105                            0
t106                            1
t107                            0
t108                            0
t109                            0
t110                            0
t111                            0
t112                            0
t113                            1
t114                            1
t115                            0
t116                            0
t117                            0
t118                            1
t119                            0
t120                            0
t121                            0
t122                            0
t123                            1
t124                            0
t125                            0
t126                            0
t127                            1
t128                            0
t129                            0
t130                            0
t131                            0
t132                            0
t133                            0
t134                            0
t135                            0
t136                            0
t137                            0
t138                            0
t139                            0
t140                            0
t141                            0
t142                            0
t143                            0
t144                            0
t145                            0
t146                            0
t147                            1
t148                            0
t149                            0
t150                            0
t151                            0
t152                            0
t153                            0
t154                            0
t155                            0
t156                            0
t157                            0
t158                            1
t159                            0
t160                            1
t161                            1
t162                            0
t163                            0
t164                            0
t165                            0
t166                            0
t167                            1
t168                            0
t169                            1
t170                            0
t171                            0
t172                            0
t173                            1
t174                            1
t175                            0
t176                            1
t177                            0
t178                            0
t179                            0
t180                            1
t181                            0
t182                            1
t183                            0
t184                            1
t185                            1
t186                            0
t187                            0
t188                            1
t189                            0
t190                            0
t191                            0
t192                            0
t193                            0
t194                            0
t195                            0
t196                            0
t197                            0
t198                            0
t199                            0
t200                            1
t201                            1
t202                            0
t203                            0
t204                            0
t205                            1
t206                            0
t207                            0
t208                            0
t209                            0
t210                            0
t211                            0
t212                            0
t213                            0
t214                            0
t215                            0
t216                            0
t217                            0
t218                            0
t219                            0
t220                            0
t221                            1
t222                            0
t223                            0
t224                            0
t225                            0
t226                            1
t227                            0
t228                            1
t229                            0
t230                            1
t231                            0
t232                            1
t233                            0
t234                            0
t235                            0
t236                            0
t237                            1
t238                            0
t239                            1
t240                            0
t241                            1
t242                            0
t243                            1
t244                            1
t245                            1
t246                            1
t247                            0
t248                            0
t249                            0
t250                            1
t251                            1
t252                            1
t253                            0
t254                            1
t255                            0
t256                            1
t257                            0
t258                            0
t259                            0
t260                            1
t261                            1
